c description: Random 2-CNF over 15 variables and 80 clauses
c generator: CNFgen (0.9.0)
c copyright: (C) 2012-2020 Massimo Lauria <massimo.lauria@uniroma1.it>
c url: https://massimolauria.net/cnfgen
c
p cnf 15 80
-5 -9 0
9 13 0
-2 15 0
12 -13 0
-3 8 0
-2 11 0
8 -9 0
3 4 0
4 15 0
7 -15 0
4 -15 0
2 9 0
-5 -10 0
4 6 0
-5 14 0
-5 -6 0
5 15 0
-8 10 0
1 8 0
4 -13 0
9 -12 0
-1 -12 0
-3 -14 0
-6 12 0
4 -11 0
-13 14 0
-9 -14 0
-5 -8 0
-8 12 0
-7 -14 0
5 11 0
3 -5 0
-10 13 0
-6 14 0
2 -11 0
12 14 0
-4 13 0
-3 -6 0
10 13 0
-7 -11 0
-7 -10 0
11 12 0
4 8 0
5 -6 0
5 -11 0
11 -13 0
-2 -11 0
-6 -15 0
5 12 0
-5 8 0
-5 -11 0
-6 -9 0
-5 10 0
-3 5 0
4 14 0
2 3 0
-4 6 0
3 12 0
-2 7 0
5 13 0
2 4 0
-2 13 0
-2 10 0
13 15 0
-2 -3 0
-4 7 0
-12 -13 0
-8 -15 0
-6 9 0
9 -14 0
-6 10 0
-5 9 0
2 -13 0
7 9 0
-3 10 0
-7 -8 0
-4 8 0
8 -13 0
-8 -12 0
1 -11 0